c Reduced graph for p30 generated by Cyril Grelier
p edge 60 317
e 1 4
e 1 6
e 1 7
e 1 10
e 1 11
e 1 14
e 1 15
e 1 17
e 1 19
e 1 22
e 1 25
e 2 3
e 2 5
e 2 8
e 2 9
e 2 12
e 2 13
e 2 16
e 2 18
e 2 20
e 2 21
e 2 26
e 3 5
e 3 8
e 3 12
e 3 18
e 3 20
e 3 21
e 3 23
e 3 30
e 3 37
e 3 50
e 4 6
e 4 7
e 4 11
e 4 17
e 4 19
e 4 22
e 4 24
e 4 29
e 4 38
e 4 51
e 5 8
e 5 12
e 5 18
e 5 20
e 5 21
e 5 35
e 5 39
e 5 42
e 5 46
e 6 7
e 6 11
e 6 17
e 6 19
e 6 22
e 6 36
e 6 40
e 6 47
e 7 11
e 7 17
e 7 19
e 7 22
e 7 27
e 7 44
e 7 49
e 7 54
e 8 12
e 8 18
e 8 20
e 8 21
e 8 28
e 8 45
e 8 48
e 9 13
e 9 16
e 9 23
e 9 26
e 9 32
e 9 35
e 9 45
e 9 56
e 9 60
e 10 14
e 10 15
e 10 24
e 10 25
e 10 31
e 10 36
e 10 44
e 10 55
e 10 57
e 11 17
e 11 19
e 11 22
e 11 31
e 11 34
e 11 41
e 11 59
e 12 18
e 12 20
e 12 21
e 12 32
e 12 33
e 12 43
e 12 58
e 13 16
e 13 17
e 13 26
e 13 37
e 13 42
e 13 48
e 13 55
e 13 58
e 14 15
e 14 18
e 14 25
e 14 38
e 14 49
e 14 56
e 14 59
e 15 20
e 15 25
e 15 34
e 15 40
e 15 51
e 15 53
e 15 54
e 16 19
e 16 26
e 16 33
e 16 39
e 16 50
e 16 52
e 16 57
e 17 19
e 17 22
e 17 37
e 17 42
e 17 48
e 17 55
e 17 58
e 18 20
e 18 21
e 18 38
e 18 49
e 18 56
e 18 59
e 19 22
e 19 33
e 19 39
e 19 50
e 19 52
e 19 57
e 20 21
e 20 34
e 20 40
e 20 51
e 20 53
e 20 54
e 21 25
e 21 27
e 21 29
e 21 41
e 21 47
e 21 52
e 21 60
e 22 26
e 22 28
e 22 30
e 22 43
e 22 46
e 22 53
e 23 30
e 23 32
e 23 35
e 23 37
e 23 45
e 23 50
e 23 56
e 23 60
e 24 29
e 24 31
e 24 36
e 24 38
e 24 44
e 24 51
e 24 55
e 24 57
e 25 27
e 25 29
e 25 41
e 25 47
e 25 52
e 25 60
e 26 28
e 26 30
e 26 43
e 26 46
e 26 53
e 27 29
e 27 41
e 27 44
e 27 47
e 27 49
e 27 52
e 27 54
e 27 60
e 28 30
e 28 43
e 28 45
e 28 46
e 28 48
e 28 53
e 29 38
e 29 41
e 29 47
e 29 51
e 29 52
e 29 60
e 30 37
e 30 43
e 30 46
e 30 50
e 30 53
e 31 34
e 31 36
e 31 41
e 31 44
e 31 55
e 31 57
e 31 59
e 32 33
e 32 35
e 32 43
e 32 45
e 32 56
e 32 58
e 32 60
e 33 39
e 33 43
e 33 50
e 33 52
e 33 57
e 33 58
e 34 40
e 34 41
e 34 51
e 34 53
e 34 54
e 34 59
e 35 39
e 35 42
e 35 45
e 35 46
e 35 56
e 35 60
e 36 40
e 36 44
e 36 47
e 36 55
e 36 57
e 37 42
e 37 48
e 37 50
e 37 55
e 37 58
e 38 49
e 38 51
e 38 56
e 38 59
e 39 42
e 39 46
e 39 50
e 39 52
e 39 57
e 40 47
e 40 51
e 40 53
e 40 54
e 41 47
e 41 52
e 41 59
e 41 60
e 42 46
e 42 48
e 42 55
e 42 58
e 43 46
e 43 53
e 43 58
e 44 49
e 44 54
e 44 55
e 44 57
e 45 48
e 45 56
e 45 60
e 46 53
e 47 52
e 47 60
e 48 55
e 48 58
e 49 54
e 49 56
e 49 59
e 50 52
e 50 57
e 51 53
e 51 54
e 52 57
e 52 60
e 53 54
e 55 57
e 55 58
e 56 59
e 56 60
